language ESSENCE' 1.0
letting w be 9
letting n be 81
letting noCrates be 1
letting noGoals be 1
letting pInit be 29
letting stps be 12
letting crates be [50]
letting goals be [24]
letting noWalls be 32
letting walls be [0, 1, 2, 3, 4, 5, 6, 7, 8, 9, 17, 18, 26, 27, 35, 36, 44, 45, 53, 54, 62, 63, 71, 72, 73, 74, 75, 76, 77, 78, 79, 80]